p edge 62 120
e 15 1
e 1 13
e 13 16
e 16 15
e 13 3
e 3 14
e 14 16
e 14 2
e 2 15
e 1 17
e 17 19
e 19 13
e 17 4
e 4 18
e 18 19
e 18 3
e 1 20
e 20 22
e 22 17
e 20 5
e 5 21
e 21 22
e 21 4
e 1 23
e 23 25
e 25 20
e 23 6
e 6 24
e 24 25
e 24 5
e 15 27
e 27 23
e 2 26
e 26 27
e 26 6
e 29 2
e 14 30
e 30 29
e 3 28
e 28 30
e 28 8
e 8 29
e 32 3
e 18 33
e 33 32
e 4 31
e 31 33
e 31 9
e 9 32
e 35 4
e 21 36
e 36 35
e 5 34
e 34 36
e 34 10
e 10 35
e 38 5
e 24 39
e 39 38
e 6 37
e 37 39
e 37 11
e 11 38
e 41 6
e 26 42
e 42 41
e 2 40
e 40 42
e 40 7
e 7 41
e 29 44
e 44 40
e 8 43
e 43 44
e 43 7
e 32 46
e 46 28
e 9 45
e 45 46
e 45 8
e 35 48
e 48 31
e 10 47
e 47 48
e 47 9
e 38 50
e 50 34
e 11 49
e 49 50
e 49 10
e 41 52
e 52 37
e 7 51
e 51 52
e 51 11
e 54 7
e 43 55
e 55 54
e 8 53
e 53 55
e 53 12
e 12 54
e 45 57
e 57 53
e 9 56
e 56 57
e 56 12
e 47 59
e 59 56
e 10 58
e 58 59
e 58 12
e 49 61
e 61 58
e 11 60
e 60 61
e 60 12
e 51 62
e 62 60
e 54 62
